p cnf 898 2672
c ind 867 857 876 877 856 858 878 881 798 827 0
c ind 854 863 866 887 792 791 802 803 804 805 0
c ind 806 811 882 891 751 756 778 786 807 889 0
c ind 797 813 853 883 764 799 812 837 843 844 0
c ind 871 873 874 892 893 773 796 808 823 828 0
c ind 833 852 872 886 888 762 776 777 793 800 0
c ind 815 836 838 842 851 861 862 864 745 763 0
c ind 766 767 772 795 849 865 750 755 785 850 0
c ind 870 880 896 790 822 832 834 846 860 868 0
c ind 758 794 885 752 780 817 824 830 845 741 0
c ind 895 749 761 774 841 770 783 826 831 848 0
c ind 840 782 810 820 825 847 875 757 760 775 0
c ind 781 816 835 748 855 890 743 765 771 788 0
c ind 769 742 753 829 821 818 884 747 894 787 0
c ind 814 784 801 819 754 789 768 839 879 746 0
c ind 859 759 869 744 809 779 740 1 0
c ret 739 600 709 601 682 710 602 657 593 627 0
c ret 622 652 737 639 640 617 641 642 714 630 0
c ret 717 613 731 695 704 702 722 716 694 707 0
c ret 727 697 689 730 715 729 732 706 696 705 0
c ret 711 632 589 618 590 591 592 631 659 594 0
c ret 660 661 662 612 636 674 669 604 690 623 0
c ret 691 692 664 626 624 625 684 685 614 628 0
c ret 578 579 580 581 699 633 719 724 638 643 0
c ret 700 720 725 653 598 701 721 726 658 663 0
c ret 673 683 599 686 698 687 703 679 708 680 0
c ret 681 713 718 603 723 670 671 728 733 605 0
c ret 675 738 606 676 668 607 677 678 609 583 0
c ret 634 688 610 635 665 648 666 693 629 588 0
c ret 645 582 734 646 615 735 647 616 736 667 0
c ret 595 584 619 649 585 620 650 586 621 651 0
c ret 587 644 608 637 654 611 655 596 656 597 0
c ret 712 672 0
2 3 531 -534 -545 0
-2 -3 0
-2 545 0
-2 534 0
-2 -531 0
3 -4 -447 -530 -867 0
3 -4 -447 530 867 0
-3 4 0
-3 -530 867 0
-3 447 0
-3 530 -867 0
4 -5 440 -442 741 0
4 -5 -440 -442 -741 0
-4 442 0
-4 440 -741 0
-4 5 0
-4 -440 741 0
5 -6 -127 -280 -365 0
-5 365 0
-5 6 0
-5 280 0
-5 127 0
6 -7 121 -125 857 0
6 -7 -121 -125 -857 0
-6 125 0
-6 121 -857 0
-6 7 0
-6 -121 857 0
7 -8 -37 -96 -102 0
-7 102 0
-7 8 0
-7 96 0
-7 37 0
8 -18 -26 787 0
8 9 -18 -26 0
-8 26 0
-8 18 0
-8 -9 -787 0
9 10 16 0
9 10 583 0
-9 -10 0
-9 -16 -583 0
10 -11 13 0
10 -11 14 -15 0
-10 11 0
-10 -13 -14 0
-10 -13 15 0
11 -12 -580 -583 740 0
-11 12 0
-11 580 0
-11 583 0
-11 -740 0
12 -581 -582 0
-12 581 0
-12 582 0
13 719 724 0
13 579 719 0
-13 -719 0
-13 -579 -724 0
14 629 659 0
-14 -629 0
-14 -659 0
15 -578 -579 0
-15 578 0
-15 579 0
16 -709 740 0
16 17 -582 740 0
-16 -740 0
-16 -17 709 0
-16 582 709 0
17 584 699 0
17 581 584 0
-17 -584 0
-17 -581 -699 0
18 -19 22 880 0
18 19 22 -880 0
18 19 879 -880 0
18 -19 879 880 0
-18 -19 -880 0
-18 19 880 0
-18 -22 -879 0
19 579 723 0
19 -20 -740 0
19 -20 723 0
19 579 -740 0
-19 -723 740 0
-19 20 -579 0
20 -740 0
20 -21 728 0
20 578 728 0
-20 -728 740 0
-20 21 -578 740 0
21 633 663 0
-21 -633 0
-21 -663 0
22 23 -24 0
22 23 579 0
-22 -23 0
-22 24 -579 0
23 -722 740 0
-23 722 0
-23 -740 0
24 -740 0
24 -25 727 0
24 578 727 0
-24 -727 740 0
-24 25 -578 740 0
25 632 662 0
-25 -632 0
-25 -662 0
26 27 858 0
26 33 789 0
26 27 33 0
26 789 858 0
-26 -27 -789 0
-26 -33 -858 0
27 28 31 0
27 28 583 0
-27 -28 0
-27 -31 -583 0
-11 28 29 0
-11 28 -579 -726 0
11 -28 0
-28 -29 579 0
-28 -29 726 0
15 29 721 0
29 -30 721 0
-29 -721 0
-15 -29 30 0
30 631 661 0
-30 -631 0
-30 -661 0
31 -711 740 0
31 32 -582 740 0
-31 -740 0
-31 -32 711 0
-31 582 711 0
32 586 701 0
32 581 586 0
-32 -586 0
-32 -581 -701 0
33 34 -740 0
33 34 701 0
-33 -34 0
-33 -701 740 0
34 -35 -580 0
34 -580 -721 740 0
-34 580 0
-34 35 721 0
-34 35 -740 0
35 36 -579 0
-35 579 0
-35 -36 0
36 -740 0
-30 36 726 0
36 578 726 0
-36 -726 740 0
30 -36 -578 740 0
37 -38 -62 -80 -89 0
-37 89 0
-37 38 0
-37 80 0
-37 62 0
38 39 -43 56 -856 0
38 -39 -43 56 856 0
-38 -56 0
-38 39 856 0
-38 43 0
-38 -39 -856 0
39 40 41 699 0
39 40 41 -740 0
-39 -41 0
-39 -40 0
-39 -699 740 0
13 40 -580 740 0
-40 580 0
-13 -40 0
-40 -740 0
14 41 -42 -579 -580 0
-41 42 0
-41 579 0
-41 580 0
-14 -41 0
42 -578 740 0
-42 578 0
-42 -740 0
43 44 47 -50 0
43 44 -50 -771 0
-43 50 0
-43 -44 0
-43 -47 771 0
44 -45 851 0
-44 -851 0
-44 45 0
45 581 -694 0
45 46 581 0
-45 -581 0
-45 -46 694 0
46 644 674 0
-46 -644 0
-46 -674 0
47 49 582 0
47 48 582 0
-47 -582 0
-47 -48 -49 0
48 644 664 0
-48 -644 0
-48 -664 0
49 614 734 0
-49 -614 0
-49 -734 0
50 -54 -767 0
50 51 772 0
50 51 -54 0
50 -767 772 0
-50 54 -772 0
-50 -51 767 0
51 53 583 0
51 52 583 0
-51 -583 0
-51 -52 -53 0
52 645 665 0
-52 -645 0
-52 -665 0
53 610 635 0
-53 -610 0
-53 -635 0
54 55 582 0
52 54 582 0
-54 -582 0
-52 -54 -55 0
55 615 735 0
-55 -615 0
-55 -735 0
56 -57 -859 0
-56 859 0
-56 57 0
57 58 60 580 0
23 57 58 60 0
-57 -60 0
-57 -58 0
-23 -57 -580 0
58 -702 740 0
58 -59 -580 740 0
-58 -740 0
-58 59 702 0
-58 580 702 0
59 -579 -727 0
-59 579 0
-59 727 0
60 -61 -579 -580 0
-60 579 0
-60 580 0
-60 61 0
25 -42 61 0
42 -61 0
-25 -61 0
62 -63 -73 -78 -780 0
62 -63 -73 78 780 0
-62 63 0
-62 -78 780 0
-62 73 0
-62 78 -780 0
63 64 67 -69 0
63 64 -69 -890 0
-63 69 0
-63 -64 0
-63 -67 890 0
64 65 -836 0
-64 836 0
-64 -65 0
65 66 578 0
48 65 578 0
-65 -578 0
-48 -65 -66 0
66 594 679 0
-66 -594 0
-66 -679 0
67 583 -733 0
67 68 583 0
-67 -583 0
-67 -68 733 0
68 648 678 0
-68 -648 0
-68 -678 0
69 70 -861 0
69 72 -763 0
69 -763 -861 0
69 70 72 0
-69 -72 861 0
-69 -70 763 0
70 580 -606 0
70 71 580 0
-70 -580 0
-70 -71 606 0
71 646 676 0
-71 -646 0
-71 -676 0
72 578 -704 0
46 72 578 0
-72 -578 0
-46 -72 704 0
73 -784 838 0
73 -74 76 0
73 76 838 0
73 -74 -784 0
-73 74 -838 0
-73 -76 784 0
74 578 -596 0
74 75 578 0
74 578 -681 0
-74 -578 0
-74 -75 596 681 0
75 646 666 0
-75 -646 0
-75 -666 0
76 581 -627 0
76 77 581 0
76 581 -657 0
-76 -581 0
-76 -77 627 657 0
77 647 667 0
-77 -647 0
-77 -667 0
78 579 -623 0
78 79 579 0
78 579 -653 0
-78 -579 0
-78 -79 623 653 0
79 648 668 0
-79 -648 0
-79 -668 0
80 -81 86 -855 0
80 -81 85 86 0
-80 81 0
-80 -86 0
-80 -85 855 0
81 82 770 0
81 -84 -862 0
81 770 -862 0
81 82 -84 0
-81 84 -770 0
-81 -82 862 0
82 578 -705 0
82 83 578 0
-82 -578 0
-82 -83 705 0
83 645 675 0
-83 -645 0
-83 -675 0
84 583 -613 0
79 84 583 0
84 583 -638 0
-84 -583 0
-79 -84 613 638 0
85 581 -698 0
68 85 581 0
-85 -581 0
-68 -85 698 0
86 -87 864 0
-86 -864 0
-86 87 0
87 578 -707 0
87 88 578 0
-87 -578 0
-87 -88 707 0
88 647 677 0
-88 -647 0
-88 -677 0
89 -90 92 765 0
89 -90 92 -95 0
-89 90 0
-89 -92 0
-89 95 -765 0
84 90 -748 0
90 91 -770 0
90 -748 -770 0
84 90 91 0
-90 -91 748 0
-84 -90 770 0
91 -591 740 0
91 -646 740 0
91 -686 740 0
-91 -740 0
-91 591 646 686 0
92 93 -766 0
-92 766 0
-92 -93 0
93 94 583 0
48 93 583 0
-93 -583 0
-48 -93 -94 0
94 609 634 0
-94 -609 0
-94 -634 0
95 580 -608 0
68 95 580 0
-95 -580 0
-68 -95 608 0
96 97 -100 101 878 0
96 97 100 101 -878 0
-96 -97 0
-96 -100 -878 0
-96 -101 0
-96 100 878 0
97 -98 881 0
97 98 -881 0
-97 -98 -881 0
-97 98 881 0
98 99 740 0
-98 -740 0
-98 -99 0
-14 99 724 0
99 578 724 0
-99 -724 0
14 -99 -578 0
100 -740 0
-29 100 579 0
-29 100 726 0
29 -100 740 0
-100 -579 -726 740 0
22 101 879 0
-101 -879 0
-22 -101 0
102 103 -104 116 896 0
102 103 104 116 -896 0
-102 -103 0
-102 -104 -896 0
-102 -116 0
-102 104 896 0
57 103 859 0
-103 -859 0
-57 -103 0
104 -105 -111 -114 -115 0
-104 115 0
-104 105 0
-104 114 0
-104 111 0
105 -106 -107 -108 -110 0
-105 110 0
-105 106 0
-105 108 0
-105 107 0
106 688 693 698 703 0
-106 -703 0
-106 -698 0
-106 -688 0
-106 -693 0
107 648 653 658 663 0
-107 -663 0
-107 -658 0
-107 -648 0
-107 -653 0
108 -109 713 718 0
-108 109 0
-108 -718 0
-108 -713 0
109 618 738 0
-109 -618 0
-109 -738 0
110 608 613 623 733 0
-110 -733 0
-110 -623 0
-110 -608 0
-110 -613 0
111 -112 -113 723 728 0
-111 -723 0
-111 113 0
-111 112 0
-111 -728 0
112 603 628 673 678 0
-112 -678 0
-112 -673 0
-112 -603 0
-112 -628 0
113 598 683 0
-113 -598 0
-113 -683 0
114 588 593 633 638 0
-114 -638 0
-114 -633 0
-114 -588 0
-114 -593 0
115 643 668 708 0
-115 -643 0
-115 -708 0
-115 -668 0
116 117 -759 0
116 119 -817 0
116 -759 -817 0
116 -119 817 0
-116 -119 759 -817 0
-116 119 759 817 0
-116 -117 119 817 0
117 -118 816 818 819 0
-117 118 0
-117 -819 0
-117 -816 0
-117 -818 0
118 742 743 746 788 0
-118 -788 0
-118 -746 0
-118 -742 0
-118 -743 0
119 -690 740 0
119 120 740 0
119 -645 740 0
-119 -740 0
-119 -120 645 690 0
120 630 660 0
-120 -630 0
-120 -660 0
121 122 740 0
-121 -740 0
-121 -122 0
122 -123 700 0
122 580 700 0
-122 -700 0
-122 123 -580 0
123 -124 720 0
123 579 720 0
-123 -720 0
-123 124 -579 0
124 578 725 0
124 630 660 725 0
-124 -725 0
-124 -578 -660 0
-124 -578 -630 0
-27 125 -126 0
125 -126 -789 0
-125 126 0
27 -125 789 0
-9 126 -858 0
-33 126 -787 0
126 -787 -858 0
-9 -33 126 0
33 -126 858 0
9 -126 787 0
127 -128 -156 -268 -276 0
-127 276 0
-127 128 0
-127 268 0
-127 156 0
128 -129 -146 -866 0
128 -129 -145 -146 0
-128 146 0
-128 129 0
-128 145 866 0
129 -130 -134 -137 -140 0
-129 140 0
-129 130 0
-129 137 0
-129 134 0
130 131 -133 -785 827 0
130 -131 -133 -785 -827 0
130 131 133 785 827 0
130 -131 133 785 -827 0
-130 -133 785 0
-130 133 -785 0
-130 131 -827 0
-130 -131 827 0
131 132 580 0
52 131 580 0
-131 -580 0
-52 -131 -132 0
132 600 670 0
-132 -600 0
-132 -670 0
133 581 -628 0
79 133 581 0
133 581 -658 0
-133 -581 0
-79 -133 628 658 0
134 -135 -750 882 0
134 135 750 882 0
134 135 -136 750 0
134 -135 -136 -750 0
-134 135 -750 0
-134 -135 750 0
-134 136 -882 0
135 -593 740 0
135 -648 740 0
135 -688 740 0
-135 -740 0
-135 593 648 688 0
124 136 740 0
-136 -740 0
-124 -136 0
137 138 -139 -854 863 0
137 -138 -139 -854 -863 0
137 138 139 854 863 0
137 -138 139 854 -863 0
-137 -139 854 0
-137 139 -854 0
-137 138 -863 0
-137 -138 863 0
138 578 -706 0
71 138 578 0
-138 -578 0
-71 -138 706 0
139 581 -697 0
88 139 581 0
-139 -581 0
-88 -139 697 0
140 -141 144 -795 865 0
140 141 -144 795 -865 0
140 141 144 795 865 0
140 -141 -144 -795 -865 0
-140 141 -795 0
-140 -141 795 0
-140 -144 865 0
-140 144 -865 0
141 -142 -613 0
141 -142 143 0
141 -142 -638 0
-141 142 0
-141 -143 613 638 0
142 583 -740 0
-142 -583 0
-142 740 0
143 612 637 0
-143 -612 0
-143 -637 0
144 578 -708 0
68 144 578 0
-144 -578 0
-68 -144 708 0
12 16 145 0
16 40 41 145 0
-16 -145 0
-12 -41 -145 0
-12 -40 -145 0
146 -147 -150 152 -755 0
146 -147 150 152 755 0
-146 -152 0
-146 150 -755 0
-146 147 0
-146 -150 755 0
136 147 741 0
147 -148 -882 0
147 741 -882 0
136 147 -148 0
-147 148 -741 0
-136 -147 882 0
148 149 752 0
148 752 788 789 0
-148 -752 0
-148 -149 -788 0
-148 -149 -789 0
149 771 787 -821 0
-149 821 0
-149 -787 0
-149 -771 0
113 150 -151 0
150 -151 -682 0
150 -151 -597 0
-150 151 0
-113 -150 597 682 0
151 578 -740 0
-151 -578 0
-151 740 0
152 -153 154 0
152 155 -754 0
152 154 -754 0
152 -153 155 0
-152 153 754 0
-152 -154 -155 0
153 -779 -859 0
153 -809 -859 0
153 -829 -859 0
-153 859 0
-153 779 809 829 0
154 859 879 0
-154 -859 0
-154 -879 0
155 746 747 748 749 0
-155 -749 0
-155 -748 0
-155 -746 0
-155 -747 0
156 -157 -194 -229 -247 0
-156 247 0
-156 157 0
-156 229 0
-156 194 0
157 -158 -168 -173 -178 0
-157 178 0
-157 158 0
-157 173 0
-157 168 0
158 -159 -166 813 0
158 -159 -164 -166 0
-158 166 0
-158 159 0
-158 164 -813 0
159 -160 -161 -162 -163 0
-159 163 0
-159 160 0
-159 162 0
-159 161 0
160 -768 -868 0
160 789 794 0
160 794 -868 0
160 -768 789 0
-160 -789 868 0
-160 768 -794 0
161 859 879 0
161 779 814 0
161 814 879 0
161 779 859 0
-161 -814 -859 0
-161 -779 -879 0
162 756 760 765 770 0
-162 -770 0
-162 -765 0
-162 -756 0
-162 -760 0
163 745 750 751 755 0
-163 -755 0
-163 -751 0
-163 -745 0
-163 -750 0
164 -165 -655 0
164 -165 -625 0
-164 165 0
-164 625 655 0
165 581 -740 0
-165 -581 0
-165 740 0
166 -167 884 0
166 -167 839 0
-166 167 0
-166 -839 -884 0
167 787 801 0
167 768 869 0
167 787 869 0
167 768 801 0
-167 -768 -787 0
-167 -801 -869 0
168 -169 -170 -171 -172 0
-168 172 0
-168 169 0
-168 171 0
-168 170 0
169 835 840 845 850 0
-169 -850 0
-169 -845 0
-169 -835 0
-169 -840 0
170 820 824 825 830 0
-170 -830 0
-170 -825 0
-170 -820 0
-170 -824 0
171 875 880 885 890 0
-171 -890 0
-171 -885 0
-171 -875 0
-171 -880 0
172 855 860 865 870 0
-172 -870 0
-172 -865 0
-172 -855 0
-172 -860 0
173 -174 -175 -176 -177 0
-173 177 0
-173 174 0
-173 176 0
-173 175 0
174 790 791 795 800 0
-174 -800 0
-174 -795 0
-174 -790 0
-174 -791 0
175 775 780 785 786 0
-175 -786 0
-175 -785 0
-175 -775 0
-175 -780 0
176 806 810 811 815 0
-176 -815 0
-176 -811 0
-176 -806 0
-176 -810 0
177 802 803 804 805 0
-177 -805 0
-177 -804 0
-177 -802 0
-177 -803 0
178 -179 189 -192 894 0
178 -179 -189 -192 -894 0
-178 192 0
-178 189 -894 0
-178 179 0
-178 -189 894 0
179 180 -183 757 0
179 180 -181 -183 0
-179 183 0
-179 -180 0
-179 181 -757 0
-164 180 813 0
-180 -813 0
164 -180 0
181 -182 -669 0
181 -182 -599 0
-181 182 0
-181 599 669 0
182 580 -740 0
-182 -580 0
-182 740 0
183 -807 808 0
183 -184 187 0
183 187 808 0
183 -184 -807 0
-183 184 -808 0
-183 -187 807 0
184 -185 186 0
-184 185 0
-184 -186 0
185 579 -740 0
-185 -579 0
-185 740 0
186 620 650 0
-186 -620 0
-186 -650 0
-185 187 188 0
185 -187 0
-187 -188 0
188 619 649 0
-188 -619 0
-188 -649 0
189 -190 191 0
-189 190 0
-189 -191 0
190 582 -740 0
-190 -582 0
-190 740 0
191 616 736 0
-191 -616 0
-191 -736 0
192 193 807 -842 0
-187 192 -193 842 0
192 -193 807 842 0
-187 192 193 -842 0
-192 193 842 0
-192 -193 -842 0
187 -192 -807 0
193 645 685 0
-193 -645 0
-193 -685 0
194 -195 -214 -218 -222 0
-194 222 0
-194 195 0
-194 218 0
-194 214 0
195 -196 -206 -210 -211 0
-195 211 0
-195 196 0
-195 210 0
-195 206 0
196 -197 -199 -202 -204 0
-196 204 0
-196 197 0
-196 202 0
-196 199 0
197 198 829 0
197 198 744 869 0
-197 -198 0
-197 -829 -869 0
-197 -744 -829 0
198 -839 -869 0
198 -814 -869 0
-198 869 0
-198 814 839 0
199 -200 -848 0
199 -201 -843 0
199 -843 -848 0
199 -200 -201 0
-199 201 848 0
-199 200 843 0
200 646 686 0
-200 -646 0
-200 -686 0
201 646 691 0
-201 -646 0
-201 -691 0
-75 202 -847 0
202 -203 -823 0
202 -823 -847 0
-75 202 -203 0
-202 203 847 0
75 -202 823 0
203 645 690 0
-203 -645 0
-203 -690 0
204 205 842 0
204 205 -747 0
204 205 746 0
-204 -205 0
-204 -746 747 -842 0
205 781 -782 -821 0
205 781 -783 -821 0
-205 -781 0
-205 821 0
-205 782 783 0
48 206 207 -208 0
206 207 -208 821 0
-206 208 0
-206 -207 0
-48 -206 -821 0
207 -753 -768 769 -779 0
-207 779 0
-207 753 0
-207 768 0
-207 -769 0
208 209 789 0
208 209 -746 0
208 209 841 0
-208 -209 0
-208 746 -789 -841 0
209 646 686 -843 0
-209 843 0
-209 -686 0
-209 -646 0
71 210 848 0
201 210 833 0
71 201 210 0
210 833 848 0
-71 -210 -833 0
-201 -210 -848 0
211 212 -841 0
211 -213 845 0
211 212 -213 0
211 -841 845 0
-211 -212 -845 0
-211 213 841 0
212 648 688 0
-212 -648 0
-212 -688 0
213 644 684 0
-213 -644 0
-213 -684 0
214 -215 217 -831 0
-46 214 -215 217 0
-214 215 0
-214 -217 0
46 -214 831 0
203 215 -846 0
215 -216 847 0
203 215 -216 0
215 -846 847 0
-203 -215 -847 0
-215 216 846 0
216 644 689 0
-216 -644 0
-216 -689 0
-83 217 -832 0
-217 832 0
83 -217 0
218 -219 -220 823 0
75 218 -219 -220 0
-218 220 0
-218 219 0
-75 -218 -823 0
219 891 895 896 0
-219 -891 0
-219 -896 0
-219 -895 0
220 221 744 0
220 221 779 839 0
-220 -221 0
-220 -744 -839 0
-220 -744 -779 0
221 647 687 -844 0
-221 844 0
-221 -687 0
-221 -647 0
222 -223 -224 -226 -227 0
-222 227 0
-222 223 0
-222 226 0
-222 224 0
46 223 -845 0
-212 223 831 0
223 831 -845 0
46 -212 223 0
212 -223 845 0
-46 -223 -831 0
-71 224 -844 0
224 -225 -833 0
224 -833 -844 0
-71 224 -225 0
-224 225 844 0
71 -224 833 0
225 647 687 0
-225 -647 0
-225 -687 0
68 88 226 0
226 834 835 0
88 226 835 0
68 226 834 0
-68 -226 -835 0
-88 -226 -834 0
227 -228 -822 0
-52 227 869 0
227 -822 869 0
-52 227 -228 0
52 -227 822 0
-227 228 -869 0
228 809 894 0
-228 -809 0
-228 -894 0
229 -230 -237 -241 -243 0
-229 243 0
-229 230 0
-229 241 0
-229 237 0
230 231 233 234 793 0
230 231 -233 234 -793 0
-230 -231 0
-230 233 -793 0
-230 -234 0
-230 -233 793 0
231 -232 -850 0
231 232 850 0
-231 -232 850 0
-231 232 -850 0
232 648 693 0
-232 -648 0
-232 -693 0
53 -142 233 0
-53 -233 0
142 -233 0
234 235 -759 0
-234 759 0
-234 -235 0
-182 235 236 0
182 -235 0
-235 -236 0
236 601 671 0
-236 -601 0
-236 -671 0
237 238 812 0
237 -239 -892 0
237 812 -892 0
237 238 -239 0
-237 239 -812 0
-237 -238 892 0
49 -190 238 0
-49 -238 0
190 -238 0
-165 239 240 0
165 -239 0
-239 -240 0
240 624 654 0
-240 -624 0
-240 -654 0
241 -242 -759 0
235 241 893 0
235 241 -242 0
241 -759 893 0
-241 242 -893 0
-235 -241 759 0
55 -190 242 0
-55 -242 0
190 -242 0
243 244 -246 -800 815 0
243 -244 -246 -800 -815 0
243 244 246 800 815 0
243 -244 246 800 -815 0
-243 -246 800 0
-243 246 -800 0
-243 244 -815 0
-243 -244 815 0
-165 244 245 0
-165 244 -658 0
-165 244 -628 0
165 -244 0
-244 -245 628 658 0
245 627 657 0
-245 -627 0
-245 -657 0
246 579 -643 0
68 246 579 0
-246 -579 0
-68 -246 643 0
247 -248 -256 -259 -264 0
-247 264 0
-247 248 0
-247 259 0
-247 256 0
248 -249 255 -754 0
248 -249 254 255 0
-248 249 0
-248 -255 0
-248 -254 754 0
249 -250 252 0
249 252 794 0
-249 -252 0
-249 250 -794 0
-142 250 251 0
142 -250 0
-250 -251 0
251 611 636 0
-251 -611 0
-251 -636 0
252 -744 -752 0
252 -752 -801 0
252 253 -752 0
-252 752 0
-252 -253 744 801 0
253 742 743 0
-253 -742 0
-253 -743 0
-151 254 -681 0
-151 254 -596 0
151 -254 0
-254 596 681 0
255 -779 -869 0
255 -784 -869 0
255 -787 -869 0
-255 869 0
-255 779 784 787 0
256 -257 258 -808 0
184 256 -257 258 0
-256 257 0
-256 -258 0
-184 -256 808 0
239 257 -893 0
242 257 -812 0
257 -812 -893 0
239 242 257 0
-242 -257 893 0
-239 -257 812 0
258 -768 -789 0
258 -789 -793 0
258 -769 -789 0
-258 789 0
-258 768 769 793 0
259 260 261 -263 0
259 260 -263 -809 0
-259 263 0
-259 -260 0
-259 -261 809 0
-181 260 757 0
-260 -757 0
181 -260 0
-185 261 262 0
185 -261 0
-261 -262 0
262 621 651 0
-262 -621 0
-262 -651 0
263 -794 892 0
-238 250 263 0
250 263 892 0
-238 263 -794 0
238 -263 -892 0
-250 -263 794 0
264 265 266 267 752 0
264 265 -266 267 -752 0
-264 -265 0
-264 266 -752 0
-264 -267 0
-264 -266 752 0
261 265 -809 0
-265 809 0
-261 -265 0
66 -151 266 0
-66 -266 0
151 -266 0
254 267 -754 0
-267 754 0
-254 -267 0
268 269 -788 876 0
268 -269 -788 -876 0
268 269 -271 876 0
268 -269 -271 -876 0
-268 269 -876 0
-268 -269 876 0
-268 271 788 0
269 270 740 0
-269 -740 0
-269 -270 0
-99 270 719 0
270 579 719 0
-270 -719 0
99 -270 -579 0
271 272 274 0
271 273 274 710 0
-271 -274 0
-271 -272 -273 0
-271 -272 -710 0
272 -583 740 0
-272 583 0
-272 -740 0
273 -582 -585 0
273 -581 -582 -700 0
-273 582 0
-273 585 700 0
-273 581 585 0
-11 274 275 0
-11 -15 120 274 0
11 -274 0
15 -274 -275 0
-120 -274 -275 0
275 720 725 0
275 579 720 0
-275 -720 0
-275 -579 -725 0
276 277 278 279 877 0
276 277 -278 279 -877 0
-276 -277 0
-276 278 -877 0
-276 -279 0
-276 -278 877 0
-145 277 -866 0
-277 866 0
145 -277 0
123 278 740 0
-278 -740 0
-123 -278 0
-271 279 -788 0
-279 788 0
271 -279 0
280 -281 -305 -317 -327 0
-280 327 0
-280 281 0
-280 317 0
-280 305 0
281 -282 -288 -290 -293 0
-281 293 0
-281 282 0
-281 290 0
-281 288 0
282 -283 285 -778 0
282 -283 285 287 0
-282 283 0
-282 -285 0
-282 -287 778 0
65 283 -829 0
283 284 -836 0
283 -829 -836 0
65 283 284 0
-283 -284 829 0
-65 -283 836 0
284 580 -602 0
77 284 580 0
284 580 -672 0
-284 -580 0
-77 -284 602 672 0
285 -744 -809 0
285 286 -744 0
285 -744 -894 0
-285 744 0
-285 -286 809 894 0
286 759 784 814 0
-286 -759 0
-286 -814 0
-286 -784 0
262 287 579 0
75 287 579 0
-287 -579 0
-75 -262 -287 0
288 778 871 0
-287 288 -289 0
288 -289 778 0
-287 288 871 0
287 -288 -778 0
-288 289 -871 0
289 582 -714 0
46 289 582 0
-289 -582 0
-46 -289 714 0
290 -291 -818 0
290 292 816 0
290 816 -818 0
290 -291 292 0
-290 291 -816 0
-290 -292 818 0
291 -689 740 0
14 291 740 0
291 -644 740 0
-291 -740 0
-14 -291 644 689 0
292 -691 740 0
30 292 740 0
292 -646 740 0
-292 -740 0
-30 -292 646 691 0
293 -294 -297 -300 -302 0
-293 302 0
-293 294 0
-293 300 0
-293 297 0
294 295 -773 0
294 296 -777 0
294 -773 -777 0
294 295 296 0
-294 -296 773 0
-294 -295 777 0
186 295 579 0
52 295 579 0
-295 -579 0
-52 -186 -295 0
191 296 582 0
75 296 582 0
-296 -582 0
-75 -191 -296 0
297 -298 299 -753 758 0
297 298 -299 753 -758 0
297 298 299 753 758 0
297 -298 -299 -753 -758 0
-297 298 -753 0
-297 -298 753 0
-297 -299 758 0
-297 299 -758 0
-151 298 -680 0
-151 298 -595 0
151 -298 0
-298 595 680 0
132 -182 299 0
-132 -299 0
182 -299 0
300 -301 -772 0
54 300 782 0
54 300 -301 0
300 -772 782 0
-300 301 -782 0
-54 -300 772 0
301 581 -625 0
52 301 581 0
301 581 -655 0
-301 -581 0
-52 -301 625 655 0
302 747 776 0
302 -303 -304 0
302 -304 776 0
302 -303 747 0
-302 303 -776 0
-302 304 -747 0
188 303 579 0
48 303 579 0
-303 -579 0
-48 -188 -303 0
304 -590 740 0
304 -645 740 0
304 -685 740 0
-304 -740 0
-304 590 645 685 0
305 -306 -309 -312 -315 0
-305 315 0
-305 306 0
-305 312 0
-305 309 0
306 307 839 0
306 -308 -886 0
306 839 -886 0
306 307 -308 0
-306 308 -839 0
-306 -307 886 0
307 583 -729 0
46 307 583 0
-307 -583 0
-46 -307 729 0
308 578 -597 0
77 308 578 0
308 578 -682 0
-308 -578 0
-77 -308 597 682 0
309 783 840 0
309 -310 -311 0
309 -311 840 0
309 -310 783 0
-309 310 -840 0
-309 311 -783 0
113 310 578 0
79 310 578 0
-310 -578 0
-79 -113 -310 0
311 581 -626 0
75 311 581 0
311 581 -656 0
-311 -581 0
-75 -311 626 656 0
312 -762 888 0
312 -313 314 0
312 314 888 0
312 -313 -762 0
-312 313 -888 0
-312 -314 762 0
313 583 -731 0
71 313 583 0
-313 -583 0
-71 -313 731 0
314 580 -605 0
83 314 580 0
-314 -580 0
-83 -314 605 0
315 771 852 0
-47 315 -316 0
315 -316 771 0
-47 315 852 0
47 -315 -771 0
-315 316 -852 0
316 581 -695 0
83 316 581 0
-316 -581 0
-83 -316 695 0
317 -318 -321 -323 -324 0
-317 324 0
-317 318 0
-317 323 0
-317 321 0
318 781 837 0
318 -319 -320 0
318 -320 781 0
318 -319 837 0
-318 319 -781 0
-318 320 -837 0
240 319 581 0
48 319 581 0
-319 -581 0
-48 -240 -319 0
320 578 -595 0
52 320 578 0
320 578 -680 0
-320 -578 0
-52 -320 595 680 0
321 818 820 0
-292 321 -322 0
321 -322 818 0
-292 321 820 0
292 -321 -818 0
-321 322 -820 0
322 -693 740 0
21 322 740 0
322 -648 740 0
-322 -740 0
-21 -322 648 693 0
308 323 -783 0
311 323 -839 0
323 -783 -839 0
308 311 323 0
-311 -323 783 0
-308 -323 839 0
324 325 -819 0
324 326 -826 0
324 -819 -826 0
324 325 326 0
-324 -326 819 0
-324 -325 826 0
325 580 -599 0
48 325 580 0
325 580 -669 0
-325 -580 0
-48 -325 599 669 0
326 -692 740 0
25 326 740 0
326 -647 740 0
-326 -740 0
-25 -326 647 692 0
327 -328 -341 -347 -357 0
-327 357 0
-327 328 0
-327 347 0
-327 341 0
328 -329 -332 -338 -339 0
-328 339 0
-328 329 0
-328 338 0
-328 332 0
329 -330 -884 0
-24 329 760 0
329 760 -884 0
-24 329 -330 0
-329 330 -760 0
24 -329 884 0
-182 330 -602 0
-182 330 331 0
-182 330 -603 0
182 -330 0
-330 -331 602 603 0
331 672 673 0
-331 -672 0
-331 -673 0
332 333 810 0
332 -335 -895 0
332 810 -895 0
332 333 -335 0
-332 335 -810 0
-332 -333 895 0
109 -190 333 0
-190 333 334 0
190 -333 0
-109 -333 -334 0
334 617 737 0
-334 -617 0
-334 -737 0
-185 335 336 0
185 -335 0
-335 -336 0
336 -337 623 653 0
-336 337 0
-336 -653 0
-336 -623 0
337 622 652 0
-337 -622 0
-337 -652 0
-333 338 -765 0
95 338 895 0
95 -333 338 0
338 -765 895 0
333 -338 -895 0
-95 -338 765 0
36 339 340 0
339 -749 883 0
339 340 883 0
36 339 -749 0
-36 -339 -883 0
-339 -340 749 0
340 -592 740 0
340 -647 740 0
340 -687 740 0
-340 -740 0
-340 592 647 687 0
341 -342 -344 -345 -346 0
-341 346 0
-341 342 0
-341 345 0
-341 344 0
342 829 830 0
-284 342 -343 0
342 -343 829 0
-284 342 830 0
284 -342 -829 0
-342 343 -830 0
343 580 -603 0
79 343 580 0
343 580 -673 0
-343 -580 0
-79 -343 603 673 0
-325 344 -782 0
301 344 826 0
301 -325 344 0
344 -782 826 0
325 -344 -826 0
-301 -344 782 0
345 749 773 0
-296 -340 345 0
-340 345 773 0
-296 345 749 0
296 -345 -773 0
340 -345 -749 0
320 346 -830 0
343 346 -837 0
346 -830 -837 0
320 343 346 0
-343 -346 830 0
-320 -346 837 0
347 -348 -351 -353 -356 0
-347 356 0
-347 348 0
-347 353 0
-347 351 0
348 -350 -774 0
348 349 775 0
348 349 -350 0
348 -774 775 0
-348 350 -775 0
-348 -349 774 0
334 349 582 0
77 349 582 0
-349 -582 0
-77 -334 -349 0
109 350 582 0
79 350 582 0
-350 -582 0
-79 -109 -350 0
351 -352 -871 0
289 351 875 0
289 351 -352 0
351 -871 875 0
-351 352 -875 0
-289 -351 871 0
352 582 -718 0
68 352 582 0
-352 -582 0
-68 -352 718 0
353 354 -889 0
353 355 -779 0
353 -779 -889 0
353 354 355 0
-353 -355 889 0
-353 -354 779 0
337 354 579 0
77 354 579 0
-354 -579 0
-77 -337 -354 0
355 583 -732 0
88 355 583 0
-355 -583 0
-88 -355 732 0
-67 356 -883 0
-36 356 890 0
356 -883 890 0
-36 -67 356 0
36 -356 883 0
67 -356 -890 0
357 -358 -361 -363 -364 0
-357 364 0
-357 358 0
-357 363 0
-357 361 0
358 796 872 0
358 -359 -360 0
358 -360 872 0
358 -359 796 0
-358 359 -872 0
-358 360 -796 0
359 582 -715 0
83 359 582 0
-359 -582 0
-83 -359 715 0
360 579 -639 0
46 360 579 0
-360 -579 0
-46 -360 639 0
-354 361 -828 0
361 362 779 0
361 779 -828 0
-354 361 362 0
354 -361 -779 0
-361 -362 828 0
236 362 580 0
75 362 580 0
-362 -580 0
-75 -236 -362 0
310 363 774 0
-349 363 -840 0
363 774 -840 0
310 -349 363 0
349 -363 -774 0
-310 -363 840 0
364 784 889 0
-76 -355 364 0
-355 364 784 0
-76 364 889 0
76 -364 -784 0
355 -364 -889 0
365 -366 -412 -429 -435 0
-365 435 0
-365 366 0
-365 429 0
-365 412 0
366 -367 -384 -403 -407 0
-366 407 0
-366 367 0
-366 403 0
-366 384 0
367 -368 -375 -378 -380 0
-367 380 0
-367 368 0
-367 378 0
-367 375 0
368 -369 -371 -372 -374 0
-368 374 0
-368 369 0
-368 372 0
-368 371 0
369 -370 -775 0
350 369 874 0
350 369 -370 0
369 -775 874 0
-369 370 -874 0
-350 -369 775 0
370 582 -717 0
88 370 582 0
-370 -582 0
-88 -370 717 0
303 371 -781 0
319 371 -776 0
371 -776 -781 0
303 319 371 0
-319 -371 781 0
-303 -371 776 0
372 -764 828 0
-362 372 373 0
372 373 828 0
-362 372 -764 0
362 -372 -828 0
-372 -373 764 0
373 580 -607 0
88 373 580 0
-373 -580 0
-88 -373 607 0
374 748 777 0
-91 -295 374 0
-295 374 748 0
-91 374 777 0
91 -374 -748 0
295 -374 -777 0
375 -377 -761 0
375 376 799 0
375 376 -377 0
375 -761 799 0
-375 377 -799 0
-375 -376 761 0
376 580 -604 0
46 376 580 0
-376 -580 0
-46 -376 604 0
377 579 -642 0
88 377 579 0
-377 -579 0
-88 -377 642 0
378 -379 -872 0
359 378 873 0
359 378 -379 0
378 -872 873 0
-378 379 -873 0
-359 -378 872 0
379 582 -716 0
71 379 582 0
-379 -582 0
-71 -379 716 0
-20 380 381 382 885 0
20 380 381 382 -885 0
-380 -381 0
20 -380 885 0
-380 -382 0
-20 -380 -885 0
-313 381 888 0
-381 -888 0
313 -381 0
382 -383 814 0
382 383 -814 0
-382 -383 -814 0
-382 383 814 0
-165 383 -656 0
-165 383 -626 0
165 -383 0
-383 626 656 0
384 -385 -390 -391 -396 0
-384 396 0
-384 385 0
-384 391 0
-384 390 0
385 386 -387 -388 792 0
385 -386 -387 -388 -792 0
-385 388 0
-385 386 -792 0
-385 387 0
-385 -386 792 0
94 -142 386 0
-94 -386 0
142 -386 0
387 -821 825 0
-48 79 387 0
79 387 -821 0
-48 387 825 0
48 -387 821 0
-79 -387 -825 0
388 389 759 0
388 389 859 869 0
-388 -389 0
-388 -759 -869 0
-388 -759 -859 0
389 761 -826 -831 0
-389 831 0
-389 826 0
-389 -761 0
291 390 -747 0
304 390 -816 0
390 -747 -816 0
291 304 390 0
-304 -390 747 0
-291 -390 816 0
-77 391 -392 -395 824 0
77 391 -392 -395 -824 0
-391 395 0
77 -391 824 0
-391 392 0
-77 -391 -824 0
392 393 -394 -835 0
-68 392 393 -394 0
-392 394 0
-392 -393 0
68 -392 835 0
393 -809 -819 0
393 -809 -879 0
-393 809 0
-393 819 879 0
52 394 -832 0
-83 394 822 0
394 822 -832 0
52 -83 394 0
83 -394 832 0
-52 -394 -822 0
213 395 846 0
216 395 841 0
213 216 395 0
395 841 846 0
-213 -395 -841 0
-216 -395 -846 0
396 -397 -398 -402 849 0
396 397 -398 -402 -849 0
-396 402 0
-396 397 849 0
-396 398 0
-396 -397 -849 0
397 647 692 0
-397 -647 0
-397 -692 0
398 399 -400 839 0
-154 398 399 -400 0
-398 400 0
-398 -399 0
154 -398 -839 0
399 -774 -869 0
399 -754 -869 0
-399 869 0
-399 754 774 0
400 401 754 0
400 401 744 884 0
-400 -401 0
-400 -754 -884 0
-400 -744 -754 0
401 -884 -894 0
401 -859 -894 0
-401 894 0
-401 859 884 0
-79 402 -834 0
-88 402 -825 0
402 -825 -834 0
-79 -88 402 0
88 -402 834 0
79 -402 825 0
24 403 404 -406 0
403 404 -406 884 0
-403 406 0
-403 -404 0
-24 -403 -884 0
404 405 -741 0
404 -741 818 -848 0
-404 741 0
-404 -405 -818 0
-404 -405 848 0
405 -819 847 0
405 -817 849 0
405 -817 -819 0
405 847 849 0
-405 819 -849 0
-405 817 -847 0
-373 406 -760 0
330 406 764 0
330 -373 406 0
406 -760 764 0
373 -406 -764 0
-330 -406 760 0
-326 407 -408 411 0
407 -408 411 819 0
-407 408 0
-407 -411 0
326 -407 -819 0
322 408 741 0
408 -409 -820 0
408 741 -820 0
322 408 -409 0
-408 409 -741 0
-322 -408 820 0
409 -410 759 801 809 0
-409 410 0
-409 -809 0
-409 -759 0
-409 -801 0
410 753 754 757 758 0
-410 -758 0
-410 -757 0
-410 -753 0
-410 -754 0
-335 411 810 0
-411 -810 0
335 -411 0
412 -413 -422 -423 -425 0
-412 425 0
-412 413 0
-412 423 0
-412 422 0
413 -414 -420 -421 0
-413 414 0
-413 420 0
-413 421 0
414 415 417 418 768 0
414 415 -417 418 -768 0
-414 -415 0
-414 417 -768 0
-414 -418 0
-414 -417 768 0
415 -416 746 0
-415 -746 0
-415 416 0
416 -589 740 0
416 -644 740 0
416 -684 740 0
-416 -740 0
-416 589 644 684 0
251 417 583 0
75 417 583 0
-417 -583 0
-75 -251 -417 0
418 419 -853 0
-418 853 0
-418 -419 0
419 581 -696 0
71 419 581 0
-419 -581 0
-71 -419 696 0
316 420 -874 0
370 420 -852 0
420 -852 -874 0
316 370 420 0
-370 -420 874 0
-316 -420 852 0
93 421 746 0
-416 421 -766 0
421 746 -766 0
93 -416 421 0
416 -421 -746 0
-93 -421 766 0
422 851 861 0
-45 -72 422 0
-72 422 851 0
-45 422 861 0
45 -422 -851 0
72 -422 -861 0
423 797 855 0
-85 423 -424 0
423 -424 855 0
-85 423 797 0
85 -423 -855 0
-423 424 -797 0
424 579 -640 0
83 424 579 0
-424 -579 0
-83 -424 640 0
425 426 427 428 769 0
425 426 -427 428 -769 0
-425 -426 0
-425 427 -769 0
-425 -428 0
-425 -427 769 0
51 426 -767 0
-426 767 0
-51 -426 0
427 583 -612 0
77 427 583 0
427 583 -637 0
-427 -583 0
-77 -427 612 637 0
-377 428 799 0
-428 -799 0
377 -428 0
429 -430 433 -434 887 0
429 -430 -433 -434 -887 0
-429 434 0
-429 433 -887 0
-429 430 0
-429 -433 887 0
430 -431 432 798 0
430 -431 -432 -798 0
-430 431 0
-430 432 -798 0
-430 -432 798 0
360 431 -797 0
424 431 -796 0
431 -796 -797 0
360 424 431 0
-424 -431 797 0
-360 -431 796 0
432 579 -641 0
71 432 579 0
-432 -579 0
-71 -432 641 0
433 583 -730 0
83 433 583 0
-433 -583 0
-83 -433 730 0
352 434 -873 0
379 434 -875 0
434 -873 -875 0
352 379 434 0
-379 -434 873 0
-352 -434 875 0
435 -436 -437 -438 -439 0
-435 439 0
-435 436 0
-435 438 0
-435 437 0
436 762 864 0
-87 -314 436 0
-314 436 864 0
-87 436 762 0
87 -436 -864 0
314 -436 -762 0
-82 437 -838 0
74 437 862 0
74 -82 437 0
437 -838 862 0
82 -437 -862 0
-74 -437 838 0
-376 438 -853 0
419 438 761 0
438 761 -853 0
-376 419 438 0
376 -438 -761 0
-419 -438 853 0
439 763 886 0
-70 -307 439 0
-307 439 763 0
-70 439 886 0
70 -439 -763 0
307 -439 -886 0
440 -584 740 0
440 441 -581 740 0
-440 -740 0
-440 -441 584 0
-440 581 584 0
-270 441 699 0
441 580 699 0
-441 -699 0
270 -441 -580 0
442 443 -446 743 -745 0
442 -443 -446 743 745 0
442 -443 446 -743 745 0
442 443 446 -743 -745 0
-442 -446 -743 0
-442 446 743 0
-442 -443 -745 0
-442 443 745 0
443 444 -445 0
443 444 581 0
-443 -444 0
-443 445 -581 0
444 -588 740 0
-444 588 0
-444 -740 0
445 580 703 0
-19 445 -740 0
-19 445 703 0
445 580 -740 0
-445 -703 740 0
19 -445 -580 0
446 581 586 0
-33 446 -740 0
-33 446 586 0
446 581 -740 0
-446 -586 740 0
33 -446 -581 0
447 -448 -458 -462 869 0
447 -448 458 -462 -869 0
-447 462 0
-447 -458 -869 0
-447 448 0
-447 458 869 0
448 449 456 0
448 -742 870 0
448 456 870 0
448 449 -742 0
-448 -449 -870 0
-448 -456 742 0
449 450 -740 0
449 450 713 0
-449 -450 0
-449 -713 740 0
450 -451 -582 0
450 -582 -588 740 0
-450 582 0
-450 451 588 0
-450 451 -740 0
451 -454 -581 0
451 -452 -453 -581 0
-451 581 0
-451 452 454 0
-451 453 454 0
-42 452 -663 0
-42 452 -633 0
42 -452 0
-452 633 663 0
453 -579 -580 0
-453 579 0
-453 580 0
454 -703 740 0
454 455 -580 740 0
-454 -740 0
-454 -455 703 0
-454 580 703 0
455 723 728 0
455 579 723 0
-455 -723 0
-455 -579 -728 0
456 457 740 0
-456 -740 0
-456 -457 0
-122 457 585 0
457 581 585 0
-457 -585 0
122 -457 -581 0
458 459 -740 0
458 459 712 0
-458 -459 0
-458 -712 740 0
459 -460 -582 0
459 -582 -587 740 0
-459 582 0
-459 460 587 0
-459 460 -740 0
-60 460 -581 0
460 461 -581 740 0
-460 581 0
60 -460 -740 0
60 -460 -461 0
461 580 702 0
59 461 702 722 0
-461 -702 0
-59 -461 -580 0
-461 -580 -722 0
462 -463 529 -870 0
-449 462 -463 529 0
-462 463 0
-462 -529 0
449 -462 870 0
463 -464 -480 -481 -801 0
463 -464 -480 481 801 0
-463 464 0
-463 -481 801 0
-463 480 0
-463 481 -801 0
464 465 -470 471 868 0
464 465 470 471 -868 0
-464 -465 0
-464 -470 -868 0
-464 -471 0
-464 470 868 0
465 -466 -744 0
-465 744 0
-465 466 0
466 468 -740 0
466 467 468 587 0
-466 -468 0
-466 -587 740 0
-466 -467 740 0
461 467 -581 0
-467 581 0
-461 -467 0
-15 25 468 -469 -581 0
15 -468 0
-25 -468 0
-468 581 0
-468 469 0
469 -580 740 0
-469 580 0
-469 -740 0
31 34 470 0
31 470 581 0
31 470 582 0
-31 -470 0
-34 -470 -581 -582 0
471 -472 -790 0
471 472 790 0
-471 -472 790 0
-471 472 -790 0
472 -476 583 0
472 -476 -740 0
472 -473 -476 0
-472 476 0
-472 473 -583 740 0
473 -474 712 713 0
473 582 712 713 0
-473 -713 0
-473 -712 0
-473 474 -582 0
474 -475 587 588 0
474 581 587 588 0
-474 -588 0
-474 -587 0
-474 475 -581 0
475 702 703 0
-475 -702 0
-475 -703 0
11 476 0
476 -477 -479 0
476 -477 579 0
-11 -476 477 0
-11 -476 479 -579 0
477 -478 722 723 0
15 477 722 723 0
-477 -722 0
-477 -723 0
-15 -477 478 0
-25 478 633 663 0
25 -478 0
-478 -663 0
-478 -633 0
479 727 728 0
-479 -727 0
-479 -728 0
445 -466 480 -860 0
-445 -466 480 860 0
-445 480 -744 860 0
445 480 -744 -860 0
-445 -480 -860 0
445 -480 860 0
466 -480 744 0
481 -482 -487 -492 -499 0
-481 499 0
-481 482 0
-481 492 0
-481 487 0
482 -483 -484 -485 -486 0
-482 486 0
-482 483 0
-482 485 0
-482 484 0
483 706 707 708 709 0
-483 -709 0
-483 -708 0
-483 -706 0
-483 -707 0
484 700 701 704 705 0
-484 -705 0
-484 -704 0
-484 -700 0
-484 -701 0
485 716 717 718 719 0
-485 -719 0
-485 -718 0
-485 -716 0
-485 -717 0
486 710 711 714 715 0
-486 -715 0
-486 -714 0
-486 -710 0
-486 -711 0
487 -488 -489 -490 -491 0
-487 491 0
-487 488 0
-487 490 0
-487 489 0
488 688 690 691 693 0
-488 -693 0
-488 -691 0
-488 -688 0
-488 -690 0
489 684 685 686 687 0
-489 -687 0
-489 -686 0
-489 -684 0
-489 -685 0
490 696 697 698 699 0
-490 -699 0
-490 -698 0
-490 -696 0
-490 -697 0
491 689 692 694 695 0
-491 -695 0
-491 -694 0
-491 -689 0
-491 -692 0
-336 -478 492 -493 -494 0
-492 494 0
336 -492 0
-492 493 0
478 -492 0
493 628 629 646 647 0
-493 -647 0
-493 -646 0
-493 -628 0
-493 -629 0
-334 494 -495 -498 664 0
-494 -664 0
-494 498 0
-494 495 0
334 -494 0
495 -496 -497 724 725 0
-495 -724 0
-495 497 0
-495 496 0
-495 -725 0
496 726 729 730 731 0
-496 -731 0
-496 -730 0
-496 -726 0
-496 -729 0
497 720 721 0
-497 -720 0
-497 -721 0
-55 498 732 733 0
55 -498 0
-498 -733 0
-498 -732 0
499 -500 -505 -508 -511 0
-499 511 0
-499 500 0
-499 508 0
-499 505 0
-66 -113 500 -501 -504 0
-500 504 0
66 -500 0
-500 501 0
113 -500 0
501 -502 -503 584 585 0
-501 -584 0
-501 503 0
-501 502 0
-501 -585 0
502 627 630 0
-502 -627 0
-502 -630 0
503 595 596 659 660 0
-503 -660 0
-503 -659 0
-503 -595 0
-503 -596 0
504 587 590 593 644 0
-504 -644 0
-504 -593 0
-504 -587 0
-504 -590 0
-475 -479 505 -506 -507 0
479 -505 0
-505 506 0
-505 507 0
475 -505 0
506 712 713 0
-506 -712 0
-506 -713 0
507 722 723 0
-507 -722 0
-507 -723 0
-68 -331 508 -509 -510 0
-508 510 0
68 -508 0
331 -508 0
-508 509 0
509 602 603 0
-509 -602 0
-509 -603 0
510 591 592 0
-510 -591 0
-510 -592 0
511 -512 -516 -518 -519 0
-511 519 0
-511 512 0
-511 518 0
-511 516 0
-94 -251 512 -513 -515 0
-512 515 0
94 -512 0
-512 513 0
251 -512 0
-109 -186 -240 513 -514 0
-513 514 0
109 -513 0
240 -513 0
186 -513 0
514 625 626 0
-514 -625 0
-514 -626 0
515 638 639 640 641 0
-515 -641 0
-515 -640 0
-515 -638 0
-515 -639 0
-132 516 -517 604 605 0
-516 -604 0
-516 517 0
132 -516 0
-516 -605 0
517 606 607 608 613 0
-517 -613 0
-517 -608 0
-517 -606 0
-517 -607 0
-49 -53 -143 -191 518 0
191 -518 0
49 -518 0
143 -518 0
53 -518 0
519 -520 -522 -523 -524 0
-519 524 0
-519 520 0
-519 523 0
-519 522 0
-236 520 -521 599 669 0
-520 -599 0
-520 521 0
236 -520 0
-520 -669 0
521 665 666 667 668 0
-521 -668 0
-521 -667 0
-521 -665 0
-521 -666 0
522 658 674 680 681 0
-522 -681 0
-522 -680 0
-522 -658 0
-522 -674 0
523 597 675 676 677 0
-523 -677 0
-523 -676 0
-523 -597 0
-523 -675 0
-188 -262 524 -525 -526 0
-524 526 0
188 -524 0
-524 525 0
262 -524 0
525 588 642 643 645 0
-525 -645 0
-525 -643 0
-525 -588 0
-525 -642 0
526 -527 -528 655 656 0
-526 -655 0
-526 528 0
-526 527 0
-526 -656 0
-30 527 586 589 0
30 -527 0
-527 -589 0
-527 -586 0
528 657 682 0
-528 -657 0
-528 -682 0
456 529 -742 0
-529 742 0
-456 -529 0
530 -710 740 0
457 530 -582 740 0
-530 -740 0
-457 -530 710 0
-530 582 710 0
531 532 -592 0
531 532 533 0
531 532 -591 0
-531 -532 0
-531 -533 591 592 0
532 597 702 0
-337 532 597 672 0
-532 -597 0
-532 -672 -702 0
337 -532 -702 0
533 589 590 702 722 0
-533 -722 0
-533 -702 0
-533 -589 0
-533 -590 0
534 -535 541 -543 0
534 -536 541 -543 0
-534 543 0
-534 -541 0
-534 535 536 0
535 584 595 0
535 584 585 586 0
-535 -584 0
-535 -585 -595 0
-535 -586 -595 0
536 537 -538 0
536 -538 631 632 0
-536 538 0
-536 -537 -632 0
-536 -537 -631 0
537 614 630 -664 0
-537 664 0
-537 -630 0
-537 -614 0
538 -539 -540 597 652 0
-538 -597 0
-538 540 0
-538 539 0
-538 -652 0
539 595 596 0
-539 -595 0
-539 -596 0
540 600 601 602 644 0
-540 -644 0
-540 -602 0
-540 -600 0
-540 -601 0
541 -542 -584 0
541 -584 660 -690 0
-541 584 0
-541 542 -660 0
-541 542 690 0
542 661 -691 0
-542 -661 0
-542 691 0
543 544 632 0
-251 543 544 612 0
-543 -544 0
251 -543 -632 0
-543 -612 -632 0
544 -622 -712 0
544 -627 -712 0
544 -630 -712 0
-544 712 0
-544 622 627 630 0
545 -546 -549 -561 0
545 -548 -549 -561 0
-545 561 0
-545 549 0
-545 546 548 0
546 587 602 0
-527 546 -547 587 0
-546 -587 0
527 -546 -602 0
-546 547 -602 0
547 585 659 660 662 0
-547 -662 0
-547 -660 0
-547 -585 0
-547 -659 0
-245 548 602 652 737 0
245 -548 0
-548 -737 0
-548 -602 0
-548 -652 0
549 -550 -554 -556 -558 0
-549 558 0
-549 550 0
-549 556 0
-549 554 0
550 -551 -552 553 0
550 -552 553 595 0
-550 552 0
-550 -553 0
-550 551 -595 0
551 587 644 0
-551 -587 0
-551 -644 0
-493 552 602 0
-493 552 702 712 0
493 -552 0
-552 -602 -712 0
-552 -602 -702 0
553 -587 -672 0
553 -672 -712 0
-553 672 0
-553 587 712 0
554 555 737 0
554 555 702 727 0
-554 -555 0
-554 -727 -737 0
-554 -702 -737 0
555 -587 -622 0
555 -587 -682 0
-555 587 0
-555 622 682 0
556 557 692 0
556 557 -662 0
556 557 584 0
-556 -557 0
-556 -584 662 -692 0
557 589 -632 -684 0
-557 684 0
-557 632 0
-557 -589 0
-105 558 -560 0
-105 -334 558 -559 0
105 -558 0
334 -558 560 0
-558 559 560 0
559 597 652 0
-559 -597 0
-559 -652 0
560 597 712 0
560 587 712 727 0
-560 -712 0
-560 -597 -727 0
-560 -587 -597 0
561 -562 -572 -576 -577 0
-561 577 0
-561 562 0
-561 576 0
-561 572 0
562 -563 -564 -565 -567 0
-562 567 0
-562 563 0
-562 565 0
-562 564 0
563 594 598 599 603 0
-563 -603 0
-563 -599 0
-563 -594 0
-563 -598 0
564 -611 727 0
564 637 682 0
564 637 727 0
564 -611 682 0
-564 611 -637 0
-564 -682 -727 0
565 -566 683 708 739 0
-565 566 0
-565 -739 0
-565 -683 0
-565 -708 0
566 643 645 667 668 0
-566 -668 0
-566 -667 0
-566 -643 0
-566 -645 0
567 -568 -569 632 0
567 -568 -569 -711 0
-567 569 0
-567 568 0
-567 -632 711 0
568 702 712 0
568 644 657 0
568 657 712 0
568 644 702 0
-568 -657 -702 0
-568 -644 -712 0
569 -570 -571 723 728 0
-569 -723 0
-569 571 0
-569 570 0
-569 -728 0
570 673 678 0
-570 -673 0
-570 -678 0
571 630 652 0
571 611 662 0
571 630 662 0
571 611 652 0
-571 -611 -630 0
-571 -652 -662 0
-528 572 -573 575 0
572 -573 575 712 0
-572 573 0
-572 -575 0
528 -572 -712 0
573 574 685 0
573 574 -590 0
573 574 589 0
-573 -574 0
-573 -589 590 -685 0
574 -596 -611 612 -622 0
-574 622 0
-574 596 0
-574 611 0
-574 -612 0
575 624 -625 -664 0
575 624 -626 -664 0
-575 -624 0
-575 664 0
-575 625 626 0
-337 576 682 0
576 702 722 0
576 682 722 0
-576 -682 -702 0
337 -576 -722 0
-576 -682 -722 0
-114 577 669 0
-114 577 674 0
-114 577 -604 0
114 -577 0
-577 604 -669 -674 0
1 2 0
-1 -2 0
897 0

